120 5
10 10 10 10 10 

0 0 0 0 0 0 1 2 
0 0 0 0 0 0 5 3 4 5 11 12 
5 0 0 0 0 1 3 10 9 6 
1 0 0 0 0 8 2 8 6 
4 0 0 0 0 4 2 8 7 
9 0 0 0 0 6 1 7 
6 0 0 0 0 5 1 13 
10 0 0 0 0 10 1 13 
5 0 0 0 0 1 1 13 
6 0 0 0 0 10 1 13 
2 0 0 0 0 3 1 13 
8 0 0 0 0 2 1 13 
0 0 0 0 0 0 2 14 26 
0 0 0 0 0 0 4 15 16 17 24 
5 0 0 0 0 1 4 23 21 19 18 
8 0 0 0 0 5 3 22 20 19 
5 0 0 0 0 7 2 21 19 
6 0 0 0 0 8 1 20 
7 0 0 0 0 8 1 25 
5 0 0 0 0 6 1 25 
6 0 0 0 0 3 1 25 
8 0 0 0 0 4 1 25 
10 0 0 0 0 4 2 25 101 
9 0 0 0 0 4 1 25 
0 0 0 0 0 0 3 48 60 72 
0 0 0 0 0 0 5 27 28 29 31 34 
1 0 0 1 1 0 4 46 39 35 32 
8 0 0 9 7 0 3 40 35 30 
10 0 0 5 5 0 4 45 39 35 33 
10 0 0 5 3 0 3 46 45 33 
6 0 0 4 6 0 3 45 38 35 
10 0 0 3 8 0 2 45 33 
8 0 0 8 7 0 4 43 38 37 36 
6 0 0 3 7 0 5 46 45 42 41 39 
7 0 0 9 4 0 3 43 37 36 
10 0 0 5 7 0 2 44 41 
5 0 0 6 4 0 1 42 
1 0 0 5 2 0 1 42 
7 0 0 5 4 0 1 43 
6 0 0 3 7 0 2 41 102 
1 0 0 5 3 0 1 47 
4 0 0 5 7 0 1 47 
3 0 0 4 4 0 1 47 
4 0 0 3 5 0 1 47 
5 0 0 6 7 0 1 47 
5 0 0 6 2 0 1 47 
0 0 0 0 0 0 1 84 
0 0 0 0 0 0 5 49 50 51 53 54 
6 1 0 0 0 0 2 58 57 
2 3 0 0 0 0 2 57 55 
1 9 0 0 0 0 1 52 
3 9 0 0 0 0 1 55 
3 8 0 0 0 0 1 56 
4 5 0 0 0 0 1 56 
7 4 0 0 0 0 1 59 
1 3 0 0 0 0 2 59 92 
4 3 0 0 0 0 1 59 
6 5 0 0 0 0 1 59 
0 0 0 0 0 0 1 84 
0 0 0 0 0 0 4 61 62 63 76 
10 1 0 0 0 0 4 70 68 65 64 
10 4 0 0 0 0 3 69 67 66 
2 9 0 0 0 0 3 69 65 64 
5 6 0 0 0 0 1 67 
7 5 0 0 0 0 1 67 
7 9 0 0 0 0 1 68 
10 4 0 0 0 0 1 71 
6 2 0 0 0 0 1 71 
4 5 0 0 0 0 1 71 
2 5 0 0 0 0 1 71 
0 0 0 0 0 0 1 84 
0 0 0 0 0 0 5 73 74 76 81 82 
10 0 1 0 0 0 3 79 75 93 
2 0 3 0 0 0 4 80 79 78 77 
3 0 5 0 0 0 3 80 78 77 
1 0 5 0 0 0 3 79 78 77 
9 0 5 0 0 0 1 83 
2 0 4 0 0 0 1 83 
3 0 7 0 0 0 1 83 
8 0 6 0 0 0 1 83 
4 0 7 0 0 0 1 83 
2 0 7 0 0 0 1 83 
0 0 0 0 0 0 1 84 
0 0 0 0 0 0 2 85 97 
0 0 0 0 0 0 5 86 88 89 94 95 
9 0 0 0 0 1 3 93 90 87 
5 0 0 0 0 9 3 92 91 98 
2 0 0 0 0 7 2 91 90 
3 0 0 0 0 4 1 90 
5 0 0 0 0 3 1 96 
8 0 0 0 0 7 1 96 
3 0 0 0 0 2 1 96 
3 0 0 0 0 4 1 96 
9 0 0 0 0 7 1 96 
5 0 0 0 0 6 1 96 
0 0 0 0 0 0 1 109 
0 0 0 0 0 0 5 98 100 101 102 107 
1 0 0 1 0 0 3 106 103 99 
8 0 0 8 0 0 2 105 104 
4 0 0 4 0 0 2 105 104 
8 0 0 4 0 0 1 103 
9 0 0 3 0 0 1 103 
10 0 0 3 0 0 1 108 
10 0 0 5 0 0 1 108 
6 0 0 2 0 0 1 108 
10 0 0 10 0 0 1 108 
1 0 0 10 0 0 1 108 
0 0 0 0 0 0 1 109 
0 0 0 0 0 0 4 110 111 112 114 
6 0 0 0 0 1 5 119 118 117 116 113 
9 0 0 0 0 5 3 118 116 115 
3 0 0 0 0 5 2 116 113 
2 0 0 0 0 3 1 115 
8 0 0 0 0 5 1 117 
8 0 0 0 0 8 1 120 
6 0 0 0 0 5 1 120 
3 0 0 0 0 8 1 120 
7 0 0 0 0 3 1 120 
4 0 0 0 0 7 1 120 
0 0 0 0 0 0 0 
